NAME : rnd44_50.tsp.tsp.optbc.tour
TYPE : TOUR
DIMENSION : 50
TOUR_SECTION
1
32
38
17
27
21
25
12
16
3
35
13
42
50
11
30
36
8
14
19
20
2
29
48
4
47
33
39
45
49
18
26
37
28
7
6
41
34
43
44
46
5
9
22
24
23
31
40
15
10
-1